NAME: si175
TYPE: TSP (M.~Hofmeister)
DIMENSION: 175
EDGE_WEIGHT_TYPE: EXPLICIT
EDGE_WEIGHT_FORMAT: UPPER_DIAG_ROW
DISPLAY_DATA_TYPE: NO_DISPLAY
EDGE_WEIGHT_SECTION
 0 4 1 2 
   0 3 5
     0 6 
       0
EOF
